30
0 1 0.58 0.14
0 2 0.7 0.29
0 3 0.81 0.26
0 4 0.54 0.3
0 5 0.9 0.36
0 6 0.83 0.37
0 7 0.78 0.42
0 8 0.48 0.14
0 9 0.5 0.36
0 10 0.39 0.23
0 11 0.78 0.24
0 12 0.77 0.35
0 13 0.89 0.16
0 14 0.54 0.28
0 15 0.66 0.38
0 16 0.44 0.36
0 17 0.66 0.32
0 18 0.6 0.41
0 19 0.81 0.37
0 20 0.43 0.22
0 21 0.7 0.35
0 22 0.62 0.32
0 23 0.78 0.34
0 24 0.7 0.4
0 25 0.64 0.3
0 26 0.67 0.23
0 27 0.82 0.38
0 28 0.85 0.48
0 29 0.5 0.28
1 2 0.6 0.15
1 3 0.45 0.12
1 4 0.48 0.3
1 5 0.42 0.22
1 6 0.72 0.23
1 7 0.47 0.36
1 8 0.66 0.25
1 9 0.32 0.22
1 10 0.4 0.12
1 11 0.38 0.1
1 12 0.74 0.24
1 13 0.71 0.3
1 14 0.56 0.14
1 15 0.45 0.3
1 16 0.57 0.28
1 17 0.68 0.28
1 18 0.72 0.27
1 19 0.54 0.26
1 20 0.5 0.2
1 21 0.78 0.28
1 22 0.44 0.18
1 23 0.58 0.22
1 24 0.78 0.35
1 25 0.18 0.16
1 26 0.64 0.14
1 27 0.76 0.35
1 28 0.73 0.37
1 29 0.6 0.26
2 3 0.38 0.26
2 4 0.5 0.32
2 5 0.44 0.34
2 6 0.58 0.28
2 7 0.62 0.38
2 8 0.76 0.31
2 9 0.41 0.19
2 10 0.44 0.18
2 11 0.66 0.2
2 12 0.66 0.26
2 13 0.6 0.4
2 14 0.8 0.29
2 15 0.53 0.25
2 16 0.49 0.24
2 17 0.68 0.31
2 18 0.3 0.12
2 19 0.51 0.32
2 20 0.7 0.2
2 21 0.5 0.38
2 22 0.74 0.33
2 23 0.5 0.34
2 24 0.82 0.36
2 25 0.7 0.31
2 26 0.48 0.24
2 27 0.74 0.3
2 28 0.52 0.24
2 29 0.6 0.4
3 4 0.88 0.26
3 5 0.6 0.23
3 6 0.44 0.11
3 7 0.92 0.37
3 8 0.74 0.32
3 9 0.69 0.34
3 10 0.58 0.19
3 11 0.76 0.17
3 12 0.64 0.31
3 13 0.82 0.29
3 14 0.58 0.23
3 15 0.46 0.31
3 16 0.8 0.3
3 17 0.56 0.31
3 18 0.68 0.18
3 19 0.68 0.27
3 20 0.38 0.21
3 21 0.72 0.35
3 22 0.76 0.19
3 23 0.75 0.23
3 24 0.46 0.23
3 25 0.63 0.24
3 26 0.7 0.21
3 27 0.68 0.31
3 28 0.78 0.35
3 29 0.62 0.19
4 5 0.78 0.19
4 6 0.58 0.31
4 7 0.71 0.33
4 8 0.73 0.33
4 9 0.6 0.24
4 10 0.68 0.2
4 11 0.66 0.2
4 12 0.64 0.28
4 13 0.39 0.33
4 14 0.72 0.29
4 15 0.74 0.27
4 16 0.46 0.19
4 17 0.78 0.39
4 18 0.3 0.22
4 19 0.27 0.07
4 20 0.8 0.25
4 21 0.71 0.1
4 22 0.79 0.15
4 23 0.48 0.19
4 24 0.6 0.18
4 25 0.66 0.16
4 26 0.64 0.24
4 27 0.5 0.32
4 28 0.38 0.25
4 29 0.71 0.26
5 6 0.34 0.16
5 7 0.66 0.22
5 8 0.52 0.31
5 9 0.7 0.21
5 10 0.63 0.18
5 11 0.4 0.16
5 12 0.64 0.24
5 13 0.76 0.26
5 14 0.55 0.1
5 15 0.81 0.34
5 16 0.58 0.24
5 17 0.67 0.24
5 18 0.62 0.32
5 19 0.52 0.12
5 20 0.5 0.24
5 21 0.57 0.29
5 22 0.6 0.04
5 23 0.58 0.08
5 24 0.68 0.21
5 25 0.54 0.22
5 26 0.68 0.2
5 27 0.89 0.32
5 28 0.74 0.26
5 29 0.45 0.2
6 7 0.78 0.34
6 8 0.66 0.29
6 9 0.56 0.33
6 10 0.92 0.16
6 11 0.69 0.18
6 12 0.56 0.24
6 13 0.52 0.26
6 14 0.5 0.12
6 15 0.59 0.29
6 16 0.7 0.28
6 17 0.8 0.26
6 18 0.28 0.16
6 19 0.68 0.24
6 20 0.4 0.15
6 21 0.28 0.24
6 22 0.5 0.16
6 23 0.52 0.2
6 24 0.34 0.32
6 25 0.78 0.22
6 26 0.72 0.21
6 27 0.56 0.24
6 28 0.65 0.34
6 29 0.66 0.12
7 8 0.54 0.42
7 9 0.72 0.35
7 10 0.47 0.36
7 11 0.54 0.36
7 12 0.61 0.38
7 13 0.58 0.26
7 14 0.6 0.32
7 15 0.77 0.29
7 16 0.55 0.38
7 17 0.72 0.4
7 18 0.5 0.31
7 19 0.58 0.26
7 20 0.8 0.28
7 21 0.72 0.39
7 22 0.72 0.18
7 23 0.6 0.22
7 24 0.8 0.26
7 25 0.65 0.44
7 26 0.44 0.32
7 27 0.74 0.24
7 28 0.48 0.14
7 29 0.6 0.34
8 9 0.71 0.39
8 10 0.51 0.13
8 11 0.38 0.15
8 12 0.66 0.25
8 13 0.7 0.3
8 14 0.86 0.32
8 15 0.48 0.25
8 16 0.68 0.33
8 17 0.18 0.18
8 18 0.54 0.37
8 19 0.46 0.34
8 20 0.69 0.25
8 21 0.38 0.32
8 22 0.5 0.35
8 23 0.58 0.37
8 24 0.42 0.38
8 25 0.48 0.37
8 26 0.43 0.19
8 27 0.68 0.3
8 28 0.74 0.4
8 29 0.6 0.35
9 10 0.48 0.34
9 11 0.62 0.32
9 12 0.74 0.37
9 13 0.56 0.39
9 14 0.81 0.31
9 15 0.23 0.14
9 16 0.56 0.27
9 17 0.8 0.45
9 18 0.67 0.27
9 19 0.86 0.25
9 20 0.65 0.34
9 21 0.46 0.31
9 22 0.4 0.17
9 23 0.68 0.21
9 24 0.56 0.34
9 25 0.5 0.38
9 26 0.64 0.28
9 27 0.78 0.19
9 28 0.41 0.29
9 29 0.46 0.31
10 11 0.4 0.02
10 12 0.38 0.12
10 13 0.82 0.36
10 14 0.84 0.24
10 15 0.71 0.22
10 16 0.76 0.2
10 17 0.69 0.22
10 18 0.74 0.3
10 19 0.54 0.27
10 20 0.82 0.12
10 21 0.66 0.2
10 22 0.71 0.22
10 23 0.54 0.24
10 24 0.71 0.3
10 25 0.53 0.24
10 26 0.64 0.06
10 27 0.7 0.27
10 28 0.54 0.29
10 29 0.65 0.28
11 12 0.7 0.14
11 13 0.42 0.34
11 14 0.56 0.22
11 15 0.81 0.2
11 16 0.85 0.18
11 17 0.56 0.24
11 18 0.44 0.3
11 19 0.77 0.27
11 20 0.48 0.1
11 21 0.72 0.18
11 22 0.82 0.2
11 23 0.54 0.22
11 24 0.46 0.28
11 25 0.54 0.26
11 26 0.4 0.04
11 27 0.72 0.25
11 28 0.56 0.27
11 29 0.76 0.3
12 13 0.57 0.34
12 14 0.46 0.28
12 15 0.68 0.34
12 16 0.7 0.32
12 17 0.62 0.32
12 18 0.54 0.38
12 19 0.44 0.28
12 20 0.66 0.24
12 21 0.28 0.24
12 22 0.6 0.2
12 23 0.16 0.16
12 24 0.42 0.18
12 25 0.78 0.12
12 26 0.72 0.18
12 27 0.62 0.34
12 28 0.55 0.3
12 29 0.46 0.22
13 14 0.56 0.32
13 15 0.74 0.41
13 16 0.78 0.27
13 17 0.58 0.18
13 18 0.38 0.32
13 19 0.42 0.3
13 20 0.76 0.3
13 21 0.54 0.24
13 22 0.7 0.22
13 23 0.41 0.18
13 24 0.66 0.24
13 25 0.75 0.46
13 26 0.42 0.3
13 27 0.72 0.46
13 28 0.68 0.36
13 29 0.9 0.38
14 15 0.65 0.24
14 16 0.81 0.34
14 17 0.71 0.14
14 18 0.52 0.28
14 19 0.54 0.22
14 20 0.2 0.2
14 21 0.64 0.34
14 22 0.72 0.14
14 23 0.62 0.18
14 24 0.55 0.31
14 25 0.38 0.3
14 26 0.53 0.18
14 27 0.48 0.26
14 28 0.4 0.26
14 29 0.73 0.24
15 16 0.56 0.25
15 17 0.66 0.32
15 18 0.44 0.13
15 19 0.79 0.34
15 20 0.68 0.3
15 21 0.4 0.17
15 22 0.63 0.31
15 23 0.54 0.35
15 24 0.48 0.27
15 25 0.27 0.25
15 26 0.58 0.24
15 27 0.55 0.05
15 28 0.63 0.15
15 29 0.58 0.17
16 17 0.58 0.31
16 18 0.76 0.12
16 19 0.54 0.12
16 20 0.68 0.28
16 21 0.47 0.29
16 22 0.42 0.2
16 23 0.58 0.24
16 24 0.39 0.21
16 25 0.52 0.26
16 26 0.46 0.22
16 27 0.38 0.3
16 28 0.48 0.33
16 29 0.73 0.36
17 18 0.72 0.19
17 19 0.64 0.32
17 20 0.51 0.34
17 21 0.56 0.29
17 22 0.68 0.28
17 23 0.76 0.32
17 24 0.6 0.27
17 25 0.5 0.34
17 26 0.58 0.28
17 27 0.86 0.36
17 28 0.56 0.26
17 29 0.42 0.38
18 19 0.57 0.24
18 20 0.62 0.31
18 21 0.56 0.3
18 22 0.78 0.32
18 23 0.58 0.36
18 24 0.62 0.3
18 25 0.54 0.38
18 26 0.66 0.34
18 27 0.77 0.18
18 28 0.4 0.22
18 29 0.83 0.28
19 20 0.64 0.28
19 21 0.44 0.17
19 22 0.64 0.08
19 23 0.4 0.12
19 24 0.68 0.25
19 25 0.52 0.23
19 26 0.37 0.28
19 27 0.52 0.36
19 28 0.65 0.32
19 29 0.63 0.24
20 21 0.68 0.28
20 22 0.52 0.2
20 23 0.82 0.24
20 24 0.74 0.37
20 25 0.58 0.3
20 26 0.64 0.06
20 27 0.5 0.32
20 28 0.6 0.34
20 29 0.92 0.27
21 22 0.78 0.25
21 23 0.44 0.29
21 24 0.47 0.28
21 25 0.66 0.26
21 26 0.44 0.22
21 27 0.74 0.22
21 28 0.72 0.25
21 29 0.74 0.34
22 23 0.76 0.04
22 24 0.81 0.17
22 25 0.62 0.26
22 26 0.88 0.24
22 27 0.79 0.28
22 28 0.81 0.29
22 29 0.62 0.16
23 24 0.36 0.13
23 25 0.76 0.28
23 26 0.77 0.26
23 27 0.46 0.32
23 28 0.39 0.25
23 29 0.62 0.2
24 25 0.74 0.3
24 26 0.56 0.32
24 27 0.42 0.22
24 28 0.42 0.12
24 29 0.52 0.33
25 26 0.46 0.24
25 27 0.82 0.22
25 28 0.68 0.32
25 29 0.42 0.1
26 27 0.54 0.29
26 28 0.38 0.28
26 29 0.75 0.33
27 28 0.56 0.1
27 29 0.48 0.12
28 29 0.66 0.22
